data/solutions/planning/wellformed/moderate/weighting/wellformed_moderate_instance93_cplex.sol
Elapsed time: 0.19
Nodes explored: 1150
Nodes left: 0
Relative gap: 0.0
Upper bound: 50210.0
Lower bound: 50210
C[0]=797.0
C[1]=797.0
C[2]=797.0
C[3]=797.0
C[4]=797.0
C[5]=796.0
y[0]=4
y[1]=1
y[2]=4
y[3]=0
y[4]=2
y[5]=5
y[6]=1
y[7]=1
y[8]=2
y[9]=0
y[10]=3
y[11]=1
y[12]=3
y[13]=1
y[14]=3
y[15]=1
y[16]=0
y[17]=2
y[18]=0
y[19]=4
y[20]=3
y[21]=2
y[22]=2
y[23]=4
y[24]=3
y[25]=0
y[26]=5
y[27]=2
y[28]=0
y[29]=2
y[30]=5
y[31]=0
y[32]=3
y[33]=1
y[34]=3
y[35]=5
y[36]=4
y[37]=0
y[38]=4
y[39]=1
y[40]=5
y[41]=0
y[42]=1
y[43]=0
y[44]=5
y[45]=5
y[46]=5
y[47]=2
y[48]=0
y[49]=0
